p cnf 166 618
60 139 0
69 141 144 0
61 64 71 0
59 91 0
66 77 0
56 156 0
73 84 92 0
79 81 99 0
62 65 100 101 0
106 107 0
85 94 114 0
96 117 0
51 52 54 0
34 49 50 70 0
42 44 46 0
37 68 0
30 33 104 0
29 40 58 89 0
28 43 80 88 0
26 31 103 158 0
38 109 0
102 110 111 0
95 112 115 0
78 118 0
120 121 0
41 45 47 0
75 123 124 126 128 0
93 130 131 132 0
133 134 135 136 0
27 32 137 140 0
63 72 142 143 145 0
146 147 148 149 0
82 87 113 116 150 0
76 97 151 153 0
53 119 154 0
48 155 0
55 90 157 0
138 159 0
-64 -141 0
-141 -160 0
-64 -160 0
-33 -40 0
-33 -43 0
-40 -43 0
-112 -161 0
-161 -162 0
-112 -162 0
-33 -141 0
-141 -161 0
-33 -161 0
-40 -64 0
-64 -112 0
-40 -112 0
-43 -160 0
-160 -162 0
-43 -162 0
-56 -105 0
-73 -105 0
-81 -105 0
-65 -105 0
-56 -73 0
-56 -81 0
-56 -65 0
-73 -81 0
-65 -73 0
-65 -81 0
-85 -164 0
-54 -164 0
-70 -164 0
-164 -166 0
-54 -85 0
-70 -85 0
-85 -166 0
-54 -70 0
-54 -166 0
-70 -166 0
-30 -68 0
-68 -88 0
-68 -125 0
-68 -158 0
-30 -88 0
-30 -125 0
-30 -158 0
-88 -125 0
-88 -158 0
-125 -158 0
-102 -108 0
-102 -152 0
-102 -118 0
-41 -102 0
-108 -152 0
-108 -118 0
-41 -108 0
-118 -152 0
-41 -152 0
-41 -118 0
-123 -130 0
-123 -137 0
-123 -142 0
-113 -123 0
-130 -137 0
-130 -142 0
-113 -130 0
-137 -142 0
-113 -137 0
-113 -142 0
-105 -164 0
-68 -105 0
-102 -105 0
-105 -123 0
-68 -164 0
-102 -164 0
-123 -164 0
-68 -102 0
-68 -123 0
-102 -123 0
-56 -85 0
-30 -56 0
-56 -108 0
-56 -130 0
-30 -85 0
-85 -108 0
-85 -130 0
-30 -108 0
-30 -130 0
-108 -130 0
-54 -73 0
-73 -88 0
-73 -152 0
-73 -137 0
-54 -88 0
-54 -152 0
-54 -137 0
-88 -152 0
-88 -137 0
-137 -152 0
-70 -81 0
-81 -125 0
-81 -118 0
-81 -142 0
-70 -125 0
-70 -118 0
-70 -142 0
-118 -125 0
-125 -142 0
-118 -142 0
-65 -166 0
-65 -158 0
-41 -65 0
-65 -113 0
-158 -166 0
-41 -166 0
-113 -166 0
-41 -158 0
-113 -158 0
-41 -113 0
-139 -144 0
-25 -139 0
-36 -139 0
-25 -144 0
-36 -144 0
-25 -36 0
-24 -114 0
-24 -50 0
-24 -127 0
-50 -114 0
-114 -127 0
-50 -127 0
-93 -124 0
-124 -143 0
-124 -151 0
-93 -143 0
-93 -151 0
-143 -151 0
-23 -119 0
-55 -119 0
-119 -138 0
-23 -55 0
-23 -138 0
-55 -138 0
-24 -139 0
-124 -139 0
-119 -139 0
-24 -124 0
-24 -119 0
-119 -124 0
-114 -144 0
-93 -144 0
-23 -144 0
-93 -114 0
-23 -114 0
-23 -93 0
-25 -50 0
-25 -143 0
-25 -55 0
-50 -143 0
-50 -55 0
-55 -143 0
-36 -127 0
-36 -151 0
-36 -138 0
-127 -151 0
-127 -138 0
-138 -151 0
-61 -69 0
-22 -69 0
-69 -86 0
-69 -91 0
-22 -61 0
-61 -86 0
-61 -91 0
-22 -86 0
-22 -91 0
-86 -91 0
-94 -96 0
-52 -94 0
-49 -94 0
-46 -94 0
-52 -96 0
-49 -96 0
-46 -96 0
-49 -52 0
-46 -52 0
-46 -49 0
-58 -104 0
-80 -104 0
-21 -104 0
-98 -104 0
-58 -80 0
-21 -58 0
-58 -98 0
-21 -80 0
-80 -98 0
-21 -98 0
-131 -133 0
-131 -140 0
-131 -145 0
-131 -146 0
-133 -140 0
-133 -145 0
-133 -146 0
-140 -145 0
-140 -146 0
-145 -146 0
-19 -35 0
-19 -155 0
-19 -90 0
-18 -19 0
-35 -155 0
-35 -90 0
-18 -35 0
-90 -155 0
-18 -155 0
-18 -90 0
-69 -94 0
-69 -104 0
-69 -131 0
-19 -69 0
-94 -104 0
-94 -131 0
-19 -94 0
-104 -131 0
-19 -104 0
-19 -131 0
-61 -96 0
-58 -61 0
-61 -133 0
-35 -61 0
-58 -96 0
-96 -133 0
-35 -96 0
-58 -133 0
-35 -58 0
-35 -133 0
-22 -52 0
-22 -80 0
-22 -140 0
-22 -155 0
-52 -80 0
-52 -140 0
-52 -155 0
-80 -140 0
-80 -155 0
-140 -155 0
-49 -86 0
-21 -86 0
-86 -145 0
-86 -90 0
-21 -49 0
-49 -145 0
-49 -90 0
-21 -145 0
-21 -90 0
-90 -145 0
-46 -91 0
-91 -98 0
-91 -146 0
-18 -91 0
-46 -98 0
-46 -146 0
-18 -46 0
-98 -146 0
-18 -98 0
-18 -146 0
-60 -71 0
-60 -77 0
-71 -77 0
-16 -39 0
-39 -62 0
-16 -62 0
-75 -134 0
-75 -87 0
-87 -134 0
-39 -60 0
-60 -75 0
-39 -75 0
-16 -71 0
-71 -134 0
-16 -134 0
-62 -77 0
-77 -87 0
-62 -87 0
-44 -117 0
-117 -122 0
-117 -129 0
-44 -122 0
-44 -129 0
-122 -129 0
-15 -29 0
-29 -31 0
-29 -38 0
-15 -31 0
-15 -38 0
-31 -38 0
-95 -120 0
-47 -95 0
-14 -95 0
-47 -120 0
-14 -120 0
-14 -47 0
-135 -147 0
-82 -135 0
-135 -153 0
-82 -147 0
-147 -153 0
-82 -153 0
-29 -117 0
-95 -117 0
-117 -135 0
-29 -95 0
-29 -135 0
-95 -135 0
-15 -44 0
-44 -120 0
-44 -147 0
-15 -120 0
-15 -147 0
-120 -147 0
-31 -122 0
-47 -122 0
-82 -122 0
-31 -47 0
-31 -82 0
-47 -82 0
-38 -129 0
-14 -129 0
-129 -153 0
-14 -38 0
-38 -153 0
-14 -153 0
-13 -156 0
-13 -84 0
-13 -106 0
-84 -156 0
-106 -156 0
-84 -106 0
-110 -163 0
-12 -110 0
-110 -165 0
-12 -163 0
-163 -165 0
-12 -165 0
-126 -132 0
-32 -126 0
-97 -126 0
-32 -132 0
-97 -132 0
-32 -97 0
-53 -67 0
-48 -53 0
-53 -159 0
-48 -67 0
-67 -159 0
-48 -159 0
-13 -110 0
-13 -126 0
-13 -53 0
-110 -126 0
-53 -110 0
-53 -126 0
-156 -163 0
-132 -156 0
-67 -156 0
-132 -163 0
-67 -163 0
-67 -132 0
-12 -84 0
-32 -84 0
-48 -84 0
-12 -32 0
-12 -48 0
-32 -48 0
-106 -165 0
-97 -106 0
-106 -159 0
-97 -165 0
-159 -165 0
-97 -159 0
-20 -57 0
-57 -99 0
-11 -57 0
-57 -100 0
-20 -99 0
-11 -20 0
-20 -100 0
-11 -99 0
-99 -100 0
-11 -100 0
-37 -89 0
-17 -37 0
-10 -37 0
-26 -37 0
-17 -89 0
-10 -89 0
-26 -89 0
-10 -17 0
-17 -26 0
-10 -26 0
-111 -115 0
-78 -111 0
-111 -121 0
-45 -111 0
-78 -115 0
-115 -121 0
-45 -115 0
-78 -121 0
-45 -78 0
-45 -121 0
-128 -136 0
-63 -128 0
-128 -148 0
-128 -150 0
-63 -136 0
-136 -148 0
-136 -150 0
-63 -148 0
-63 -150 0
-148 -150 0
-9 -154 0
-154 -157 0
-83 -154 0
-8 -154 0
-9 -157 0
-9 -83 0
-8 -9 0
-83 -157 0
-8 -157 0
-8 -83 0
-37 -57 0
-57 -111 0
-57 -128 0
-57 -154 0
-37 -111 0
-37 -128 0
-37 -154 0
-111 -128 0
-111 -154 0
-128 -154 0
-20 -89 0
-20 -115 0
-20 -136 0
-9 -20 0
-89 -115 0
-89 -136 0
-9 -89 0
-115 -136 0
-9 -115 0
-9 -136 0
-17 -99 0
-78 -99 0
-63 -99 0
-99 -157 0
-17 -78 0
-17 -63 0
-17 -157 0
-63 -78 0
-78 -157 0
-63 -157 0
-10 -11 0
-11 -121 0
-11 -148 0
-11 -83 0
-10 -121 0
-10 -148 0
-10 -83 0
-121 -148 0
-83 -121 0
-83 -148 0
-26 -100 0
-45 -100 0
-100 -150 0
-8 -100 0
-26 -45 0
-26 -150 0
-8 -26 0
-45 -150 0
-8 -45 0
-8 -150 0
-6 -7 0
-7 -59 0
-7 -66 0
-5 -7 0
-6 -59 0
-6 -66 0
-5 -6 0
-59 -66 0
-5 -59 0
-5 -66 0
-79 -92 0
-4 -92 0
-92 -101 0
-92 -107 0
-4 -79 0
-79 -101 0
-79 -107 0
-4 -101 0
-4 -107 0
-101 -107 0
-34 -51 0
-42 -51 0
-51 -74 0
-3 -51 0
-34 -42 0
-34 -74 0
-3 -34 0
-42 -74 0
-3 -42 0
-3 -74 0
-2 -28 0
-1 -28 0
-28 -103 0
-28 -109 0
-1 -2 0
-2 -103 0
-2 -109 0
-1 -103 0
-1 -109 0
-103 -109 0
-27 -72 0
-27 -149 0
-27 -116 0
-27 -76 0
-72 -149 0
-72 -116 0
-72 -76 0
-116 -149 0
-76 -149 0
-76 -116 0
-7 -92 0
-7 -51 0
-7 -28 0
-7 -27 0
-51 -92 0
-28 -92 0
-27 -92 0
-28 -51 0
-27 -51 0
-27 -28 0
-6 -79 0
-6 -34 0
-2 -6 0
-6 -72 0
-34 -79 0
-2 -79 0
-72 -79 0
-2 -34 0
-34 -72 0
-2 -72 0
-4 -59 0
-42 -59 0
-1 -59 0
-59 -149 0
-4 -42 0
-1 -4 0
-4 -149 0
-1 -42 0
-42 -149 0
-1 -149 0
-66 -101 0
-66 -74 0
-66 -103 0
-66 -116 0
-74 -101 0
-101 -103 0
-101 -116 0
-74 -103 0
-74 -116 0
-103 -116 0
-5 -107 0
-3 -5 0
-5 -109 0
-5 -76 0
-3 -107 0
-107 -109 0
-76 -107 0
-3 -109 0
-3 -76 0
-76 -109 0
